122     4       
13      14      13      12      
0       0       0       0       0       3       2       3       4       
3       0       7       0       0       2       11      12      
1       0       10      0       0       3       5       6       7       
4       0       3       0       0       3       9       44      50      
2       0       3       0       0       3       16      36      77      
2       0       8       0       0       2       14      31      
8       6       0       0       0       3       8       23      34      
8       7       0       0       0       2       20      64      
2       0       7       0       0       2       10      13      
5       0       0       0       1       3       22      40      65      
4       0       0       0       6       3       17      33      96      
3       6       0       0       0       1       15      
6       0       0       7       0       2       54      57      
3       0       2       0       0       3       19      26      30      
10      0       0       10      0       1       32      
1       0       5       0       0       1       18      
10      2       0       0       0       2       60      99      
1       0       8       0       0       1       55      
7       0       0       0       9       3       21      25      38      
3       0       3       0       0       3       24      84      92      
8       0       0       0       5       3       35      53      61      
3       0       6       0       0       1       103     
2       0       0       0       4       3       29      43      88      
1       0       2       0       0       3       27      28      37      
6       0       0       7       0       1       39      
6       0       0       1       0       1       59      
10      0       0       10      0       3       87      104     105     
3       0       10      0       0       2       80      86      
10      0       0       0       5       3       49      67      94      
9       0       5       0       0       3       59      95      107     
2       1       0       0       0       1       48      
1       0       0       5       0       1       33      
1       0       3       0       0       1       47      
3       9       0       0       0       1       51      
6       1       0       0       0       1       76      
8       0       0       7       0       1       67      
9       6       0       0       0       3       41      79      102     
4       0       0       0       4       1       79      
1       5       0       0       0       1       50      
3       0       0       6       0       1       97      
8       0       0       0       4       2       42      52      
2       0       0       0       1       1       56      
6       5       0       0       0       3       46      100     101     
3       0       2       0       0       2       45      65      
5       0       7       0       0       1       94      
1       0       9       0       0       1       91      
3       0       0       0       2       1       107     
8       0       4       0       0       3       58      63      81      
1       0       0       0       3       1       66      
8       8       0       0       0       1       56      
5       0       0       2       0       3       68      70      117     
7       7       0       0       0       1       75      
1       5       0       0       0       1       73      
5       1       0       0       0       1       89      
10      0       0       4       0       2       71      102     
3       0       0       9       0       1       90      
7       4       0       0       0       1       62      
7       0       0       3       0       3       69      72      98      
9       0       0       0       4       3       78      79      93      
2       0       7       0       0       1       93      
8       0       8       0       0       2       98      115     
4       0       8       0       0       1       105     
9       0       0       0       2       1       75      
7       0       0       0       4       1       110     
7       0       0       8       0       2       83      106     
6       0       0       2       0       1       109     
4       0       0       0       9       1       74      
10      0       2       0       0       1       88      
4       0       0       8       0       1       80      
1       0       10      0       0       1       113     
9       4       0       0       0       1       90      
10      0       0       5       0       1       74      
10      5       0       0       0       1       106     
4       0       0       6       0       1       103     
3       0       0       0       9       1       97      
1       0       0       0       3       1       103     
2       0       4       0       0       1       82      
7       0       0       0       2       2       88      114     
5       0       0       5       0       1       114     
1       6       0       0       0       1       83      
4       0       0       0       1       2       85      92      
1       0       0       1       0       2       86      89      
4       0       8       0       0       1       121     
4       0       3       0       0       1       91      
5       0       0       0       7       1       94      
8       9       0       0       0       2       97      98      
10      0       0       0       3       1       112     
8       0       8       0       0       1       108     
8       0       0       1       0       1       108     
2       0       9       0       0       1       91      
2       7       0       0       0       1       95      
2       0       0       5       0       1       93      
8       8       0       0       0       1       113     
3       0       6       0       0       1       112     
9       0       0       1       0       1       115     
4       0       6       0       0       1       100     
2       0       3       0       0       1       116     
4       0       0       4       0       1       106     
5       0       9       0       0       1       110     
2       0       6       0       0       1       102     
8       0       0       0       5       1       111     
3       0       0       3       0       2       108     116     
7       9       0       0       0       1       104     
1       0       0       2       0       1       112     
5       0       0       0       6       2       109     111     
10      0       0       0       10      1       119     
5       3       0       0       0       1       121     
3       0       10      0       0       1       110     
7       0       2       0       0       1       118     
2       0       0       0       7       1       119     
5       0       0       4       0       1       114     
4       1       0       0       0       1       117     
7       0       6       0       0       1       116     
5       0       0       1       0       1       121     
2       0       0       0       4       1       119     
7       0       0       0       2       1       120     
1       0       3       0       0       1       118     
1       5       0       0       0       1       120     
5       3       0       0       0       1       122     
8       0       0       1       0       1       122     
6       0       5       0       0       1       122     
0       0       0       0       0       0       